p cnf 9 35
-4 -6 8 0
2 -7 -8 0
-2 5 9 0
2 1 3 0
6 -5 1 0
-9 -1 3 0
2 9 6 0
2 -1 -3 0
-1 -3 8 0
4 -3 5 0
7 -5 -1 0
3 1 -4 0
5 -1 -6 0
-5 8 -7 0
3 -6 2 0
-6 -9 -8 0
3 2 9 0
7 -9 -5 0
8 -1 -5 0
8 -7 2 0
6 2 -1 0
3 -4 -2 0
-3 7 -1 0
-8 -2 -4 0
8 -4 -2 0
8 -1 -5 0
-9 4 8 0
-7 -4 -1 0
-6 -8 7 0
8 -9 6 0
5 6 -7 0
-7 -3 -6 0
5 -7 -8 0
3 -9 -6 0
8 -7 -6 0
